65
6 31 74 143 209 264 282 291 292 300 303 326 342 351 374 388 398 409 416 431 441 496 519 539 558 571 583 619 652 665 675 678 711 716 747 753 767 778 871 884 888 902 916 986 1012 1127 1153 1165 1175 1218 1232 1239 1241 1288 1322 1332 1351 1364 1372 1380 1427 1435 1443 1471 1499 